n_machines = 10;
n_resources = 15;
n_jobs = 75;
horizon = 32167;
LB = 3216;
n_jobs_per_resource = [5, 5, 5, 5, 5, 5, 5, 5, 5, 5, 5, 5, 5, 5, 5];
duration = [108, 4, 888, 619, 12, 68, 207, 34, 754, 175, 286, 61, 390, 266, 447, 313, 624, 491, 502, 888, 347, 774, 698, 472, 11, 69, 205, 962, 380, 358, 138, 229, 857, 110, 18, 297, 373, 563, 547, 799, 137, 488, 942, 533, 355, 425, 363, 376, 375, 638, 475, 946, 292, 781, 666, 835, 62, 848, 343, 259, 124, 509, 417, 477, 870, 268, 360, 312, 348, 539, 621, 799, 325, 589, 126]